18
   16   17
C     -1.21243557     0.70000000     0.00000000
C     -2.42487113     1.40000000     0.00000000
C     -2.42487113    -1.40000000     0.00000000
C     -1.21243557    -0.70000000     0.00000000
C      1.21243557     0.70000000     0.00000000
C      0.00000000     1.40000000     0.00000000
C      0.00000000    -1.40000000     0.00000000
C      1.21243557    -0.70000000     0.00000000
C      2.42487113     1.40000000     0.00000000
C      2.42487113    -1.40000000     0.00000000
H     -2.42487113     2.48000000     0.00000000
H     -2.42487113    -2.48000000     0.00000000
H      0.00000000     2.48000000     0.00000000
H      0.00000000    -2.48000000     0.00000000
H      2.42487113     2.48000000     0.00000000
H      2.42487113    -2.48000000     0.00000000
X      3.17487113     0.00000000     0.00000000
X     -3.17487113     0.00000000     0.00000000
    0    1 S
    0    3 S
    0    5 S
    1   10 S
    2    3 S
    2   11 S
    3    6 S
    4    5 S
    4    7 S
    4    8 S
    5   12 S
    6    7 S
    6   13 S
    7    9 S
    8   14 S
    9   15 S
    1   17 S
    2   17 S
    8   16 S
    9   16 S
