12
   10   11
C      0.00000000     0.70000000     0.00000000
C     -1.21243557     1.40000000     0.00000000
C     -1.21243557    -1.40000000     0.00000000
C      0.00000000    -0.70000000     0.00000000
C      1.21243557     1.40000000     0.00000000
C      1.21243557    -1.40000000     0.00000000
H     -1.21243557     2.48000000     0.00000000
H     -1.21243557    -2.48000000     0.00000000
H      1.21243557     2.48000000     0.00000000
H      1.21243557    -2.48000000     0.00000000
X      1.96243557     0.00000000     0.00000000
X     -1.96243557     0.00000000     0.00000000
    0    1 S
    0    3 S
    0    4 S
    1    6 S
    2    3 S
    2    7 S
    3    5 S
    4    8 S
    5    9 S
    1   11 S
    2   11 S
    4   10 S
    5   10 S
