12
    6    7    8    9   10   11
C      1.40000000     0.00000000     0.00000000
C      0.70000000     1.21243557     0.00000000
C     -0.70000000     1.21243557     0.00000000
C     -1.40000000     0.00000000     0.00000000
C     -0.70000000    -1.21243557     0.00000000
C      0.70000000    -1.21243557     0.00000000
X      1.69951905     0.98121778     0.00000000
X      0.00000000     1.96243557     0.00000000
X     -1.69951905     0.98121778     0.00000000
X     -1.69951905    -0.98121778     0.00000000
X      0.00000000    -1.96243557     0.00000000
X      1.69951905    -0.98121778     0.00000000
    0    1 S
    0    5 S
    1    2 S
    2    3 S
    3    4 S
    4    5 S
    0    6 S
    0   11 S
    1    6 S
    1    7 S
    2    7 S
    2    8 S
    3    8 S
    3    9 S
    4    9 S
    4   10 S
    5   10 S
    5   11 S
