45
   39   40   41   42   43   44
Zn     2.10283562     2.10284916    -2.10281731
Zn    -2.10282766     2.10284916     2.10284598
Zn     2.10283562    -2.10281412     2.10284598
Zn    -2.10282766    -2.10287624    -2.10287942
Cl     3.29821570     3.29822924    -3.29766942
Cl    -3.29767977     3.29822924     3.29822606
Cl     3.29821570    -3.29766624     3.29822606
Cl    -3.29767977    -3.29825632    -3.29825950
Zn    -0.00002708    -0.00001354    -0.00001672
N      2.81683375     0.77392441    -0.77407890
N     -0.77408925     2.81684729     0.77392123
N      0.77391087    -0.77407571     2.81684411
N      0.77391087     2.81684729    -0.77407890
N     -0.77408925     0.77392441     2.81684411
N      2.81683375    -0.77407571     0.77392123
N     -0.77408925    -2.81687437    -0.77395467
N      0.77391087     0.77404864    -2.81687755
N      0.77391087    -2.81687437     0.77404545
N     -0.77408925    -0.77395149    -2.81687755
N     -2.81688791     0.77392441     0.77404545
N     -2.81688791    -0.77407571    -0.77395467
C      4.11967071     0.49658629    -0.49655444
C     -0.49656479     4.11968425     0.49658311
C      0.49657276    -0.49655125     4.11968106
C      0.49657276     4.11968425    -0.49655444
C     -0.49656479     0.49658629     4.11968106
C      4.11967071    -0.49655125     0.49658311
C     -0.49656479    -4.11971132    -0.49661655
C      0.49657276     0.49652418    -4.11971451
C      0.49657276    -4.11971132     0.49652099
C     -0.49656479    -0.49661337    -4.11971451
C     -4.11972486     0.49658629     0.49652099
C     -4.11972486    -0.49655125    -0.49661655
N      2.04134296    -0.00001354    -0.00001672
N     -0.00002708     2.04135650    -0.00001672
N     -0.00002708    -0.00001354     2.04135331
N     -0.00002708    -2.04138357    -0.00001672
N     -0.00002708    -0.00001354    -2.04138676
N     -2.04139711    -0.00001354    -0.00001672
X      4.86967071     0.00000778     0.00000460
X     -0.00000575     4.86968425     0.00000460
X     -0.00000575     0.00000778     4.86968106
X     -0.00000575    -4.86971132    -0.00003804
X     -0.00000575    -0.00003486    -4.86971451
X     -4.86972486     0.00000778    -0.00003804
    0     4 S
    0     9 S
    0    12 S
    0    16 S
    1     5 S
    1    10 S
    1    13 S
    1    19 S
    2     6 S
    2    11 S
    2    14 S
    2    17 S
    3     7 S
    3    15 S
    3    18 S
    3    20 S
    8    33 S
    8    34 S
    8    35 S
    8    36 S
    8    37 S
    8    38 S
    9    21 S
    9    33 S
   10    22 S
   10    34 S
   11    23 S
   11    35 S
   12    24 S
   12    34 S
   13    25 S
   13    35 S
   14    26 S
   14    33 S
   15    27 S
   15    36 S
   16    28 S
   16    37 S
   17    29 S
   17    36 S
   18    30 S
   18    37 S
   19    31 S
   19    38 S
   20    32 S
   20    38 S
   21    26 S
   22    24 S
   23    25 S
   27    29 S
   28    30 S
   31    32 S
   21    39 S
   26    39 S
   22    40 S
   24    40 S
   23    41 S
   25    41 S
   27    42 S
   29    42 S
   28    43 S
   30    43 S
   31    44 S
   32    44 S
