25
   22   23   24
C      0.00000000     0.00000000     1.30000000
C      0.00000000     0.00000000    -1.30000000
H      0.00000000     0.00000000     2.39000000
H      0.00000000     0.00000000    -2.39000000
C      1.41830885     0.00000000     0.70000000
C      1.41830885     0.00000000    -0.70000000
C      2.63074442     0.00000000     1.40000000
C      2.63074442     0.00000000    -1.40000000
H      2.63074442     0.00000000     2.48000000
H      2.63074442     0.00000000    -2.48000000
C     -0.70915443     1.22829150     0.70000000
C     -0.70915443     1.22829150    -0.70000000
C     -1.31537221     2.27829150     1.40000000
C     -1.31537221     2.27829150    -1.40000000
H     -1.31537221     2.27829150     2.48000000
H     -1.31537221     2.27829150    -2.48000000
C     -0.70915443    -1.22829150     0.70000000
C     -0.70915443    -1.22829150    -0.70000000
C     -1.31537221    -2.27829150     1.40000000
C     -1.31537221    -2.27829150    -1.40000000
H     -1.31537221    -2.27829150     2.48000000
H     -1.31537221    -2.27829150    -2.48000000
X      3.38074442     0.00000000     0.00000000
X     -1.69037221     2.92781055     0.00000000
X     -1.69037221    -2.92781055     0.00000000
    0    2 S
    0    4 S
    0   10 S
    0   16 S
    1    3 S
    1    5 S
    1   11 S
    1   17 S
    4    5 S
    4    6 S
    5    7 S
    6    8 S
    7    9 S
   10   11 S
   10   12 S
   11   13 S
   12   14 S
   13   15 S
   16   17 S
   16   18 S
   17   19 S
   18   20 S
   19   21 S
    6   22 S
    7   22 S
   12   23 S
   13   23 S
   18   24 S
   19   24 S
