16
   14   15
C     -2.44821543     1.01152989    -1.01148552
C      2.44821543    -1.01148552     1.01152989
C      2.44821543     1.01152989    -1.01148552
C     -2.44821543    -1.01148552     1.01152989
C     -1.21246138     0.51617233    -0.51622114
C      1.21246138    -0.51622114     0.51617233
C      1.21246138     0.51617233    -0.51622114
C     -1.21246138    -0.51622114     0.51617233
O      0.00000000     1.03917053    -1.03918828
O      0.00000000    -1.03918828     1.03917053
H     -2.46265689     1.66906657    -1.66905326
H      2.46265689    -1.66905326     1.66906657
H      2.46265689     1.66906657    -1.66905326
H     -2.46265689    -1.66905326     1.66906657
X     -3.19821543     0.00003192     0.00003192
X      3.19821543     0.00003192     0.00003192
    0     4 S
    0    10 S
    1     5 S
    1    11 S
    2     6 S
    2    12 S
    3     7 S
    3    13 S
    4     7 S
    4     8 S
    5     6 S
    5     9 S
    6     8 S
    7     9 S
    0    14 S
    3    14 S
    1    15 S
    2    15 S
