11
    9   10
N     -1.78281097    -0.44758403     0.00000000
N      1.78281097     0.44758403     0.00000000
N     -0.50378634     1.76775161     0.00000000
N      0.50378634    -1.76775161     0.00000000
H     -2.17845836    -1.41582513     0.00000000
H      2.17845836     1.41582513     0.00000000
H      0.13691135     2.59451285     0.00000000
H     -0.13691135    -2.59451285     0.00000000
Ni     0.00000000     0.00000000     0.00000000
X     -1.79281771     1.03508379     0.00000000
X      1.79281771    -1.03508379     0.00000000
    0     4 S
    0     8 S
    1     5 S
    1     8 S
    2     6 S
    2     8 S
    3     7 S
    3     8 S
    0     9 S
    2     9 S
    1    10 S
    3    10 S
