27
   24   25   26
C      3.59245463    -1.26093766     0.00000000
C     -0.70422326     3.74162580     0.00000000
C     -2.88823136    -2.48068814     0.00000000
C      2.88823136    -2.48068814     0.00000000
C     -3.59245463    -1.26093766     0.00000000
C      0.70422326     3.74162580     0.00000000
C     -0.76661734     1.30156490     0.00000000
C     -0.74387960    -1.31469254     0.00000000
C      1.51049694     0.01312764     0.00000000
C     -1.51049694     0.01312764     0.00000000
C      0.76661734     1.30156490     0.00000000
C      0.74387960    -1.31469254     0.00000000
C      2.85719597    -0.01468305     0.00000000
C     -1.41588209     2.48174581     0.00000000
C     -1.44131387    -2.46706277     0.00000000
C      1.44131387    -2.46706277     0.00000000
C     -2.85719597    -0.01468305     0.00000000
C      1.41588209     2.48174581     0.00000000
H      3.47876594     0.85584736     0.00000000
H     -2.48056853     2.58477600     0.00000000
H     -0.99819741    -3.44062336     0.00000000
H      0.99819741    -3.44062336     0.00000000
H     -3.47876594     0.85584736     0.00000000
H      2.48056853     2.58477600     0.00000000
X      3.88986205    -2.24581290     0.00000000
X      0.00000000     4.49162580     0.00000000
X     -3.88986205    -2.24581290     0.00000000
    0     3 S
    0    12 S
    1     5 S
    1    13 S
    2     4 S
    2    14 S
    3    15 S
    4    16 S
    5    17 S
    6     9 S
    6    10 S
    6    13 S
    7     9 S
    7    11 S
    7    14 S
    8    10 S
    8    11 S
    8    12 S
    9    16 S
   10    17 S
   11    15 S
   12    18 S
   13    19 S
   14    20 S
   15    21 S
   16    22 S
   17    23 S
    0    24 S
    3    24 S
    1    25 S
    5    25 S
    2    26 S
    4    26 S
